n = 59;
rows = 148;
supports = [|
  {1},2..17,
 |{1},44..59,
 |{2},{1},
 |{2},3..18,
 |{2},45..59,
 |{3},1..2,
 |{3},4..19,
 |{3},46..59,
 |{4},1..3,
 |{4},5..20,
 |{4},47..59,
 |{5},1..4,
 |{5},6..21,
 |{5},48..59,
 |{6},1..5,
 |{6},7..22,
 |{6},49..59,
 |{7},1..6,
 |{7},8..23,
 |{7},50..59,
 |{8},1..7,
 |{8},9..24,
 |{8},51..59,
 |{9},1..8,
 |{9},10..25,
 |{9},52..59,
 |{10},1..9,
 |{10},11..26,
 |{10},53..59,
 |{11},1..10,
 |{11},12..27,
 |{11},54..59,
 |{12},1..11,
 |{12},13..28,
 |{12},55..59,
 |{13},1..12,
 |{13},14..29,
 |{13},56..59,
 |{14},1..13,
 |{14},15..30,
 |{14},57..59,
 |{15},1..14,
 |{15},16..31,
 |{15},58..59,
 |{16},1..15,
 |{16},17..32,
 |{16},{59},
 |{17},1..16,
 |{17},18..33,
 |{18},2..17,
 |{18},19..34,
 |{19},3..18,
 |{19},20..35,
 |{20},4..19,
 |{20},21..36,
 |{21},5..20,
 |{21},22..37,
 |{22},6..21,
 |{22},23..38,
 |{23},7..22,
 |{23},24..39,
 |{24},8..23,
 |{24},25..40,
 |{25},9..24,
 |{25},26..41,
 |{26},10..25,
 |{26},27..42,
 |{27},11..26,
 |{27},28..43,
 |{28},12..27,
 |{28},29..44,
 |{29},13..28,
 |{29},30..45,
 |{30},14..29,
 |{30},31..46,
 |{31},15..30,
 |{31},32..47,
 |{32},16..31,
 |{32},33..48,
 |{33},17..32,
 |{33},34..49,
 |{34},18..33,
 |{34},35..50,
 |{35},19..34,
 |{35},36..51,
 |{36},20..35,
 |{36},37..52,
 |{37},21..36,
 |{37},38..53,
 |{38},22..37,
 |{38},39..54,
 |{39},23..38,
 |{39},40..55,
 |{40},24..39,
 |{40},41..56,
 |{41},25..40,
 |{41},42..57,
 |{42},26..41,
 |{42},43..58,
 |{43},27..42,
 |{43},44..59,
 |{44},28..43,
 |{44},45..59,
 |{44},{1},
 |{45},29..44,
 |{45},46..59,
 |{45},1..2,
 |{46},30..45,
 |{46},47..59,
 |{46},1..3,
 |{47},31..46,
 |{47},48..59,
 |{47},1..4,
 |{48},32..47,
 |{48},49..59,
 |{48},1..5,
 |{49},33..48,
 |{49},50..59,
 |{49},1..6,
 |{50},34..49,
 |{50},51..59,
 |{50},1..7,
 |{51},35..50,
 |{51},52..59,
 |{51},1..8,
 |{52},36..51,
 |{52},53..59,
 |{52},1..9,
 |{53},37..52,
 |{53},54..59,
 |{53},1..10,
 |{54},38..53,
 |{54},55..59,
 |{54},1..11,
 |{55},39..54,
 |{55},56..59,
 |{55},1..12,
 |{56},40..55,
 |{56},57..59,
 |{56},1..13,
 |{57},41..56,
 |{57},58..59,
 |{57},1..14,
 |{58},42..57,
 |{58},{59},
 |{58},1..15,
 |{59},43..58,
 |{59},1..16 |];

t = 281;

indexes = [|
    0,3,
  | 0,8,
  | 0,45,
  | 1,13,
  | 1,23,
  | 1,49,
  | 2,16,
  | 2,21,
  | 2,22,
  | 2,24,
  | 2,30,
  | 2,44,
  | 2,51,
  | 2,54,
  | 2,57,
  | 3,34,
  | 4,10,
  | 4,17,
  | 4,18,
  | 4,19,
  | 4,20,
  | 4,21,
  | 4,26,
  | 4,28,
  | 4,33,
  | 4,36,
  | 4,40,
  | 4,41,
  | 4,42,
  | 4,47,
  | 4,48,
  | 4,53,
  | 4,55,
  | 5,28,
  | 5,33,
  | 5,37,
  | 5,42,
  | 5,44,
  | 5,55,
  | 5,56,
  | 6,16,
  | 6,22,
  | 6,24,
  | 6,30,
  | 6,31,
  | 6,36,
  | 6,53,
  | 6,54,
  | 6,57,
  | 7,25,
  | 7,28,
  | 7,33,
  | 7,42,
  | 7,44,
  | 7,51,
  | 7,56,
  | 8,10,
  | 8,19,
  | 8,20,
  | 8,29,
  | 8,41,
  | 8,46,
  | 8,47,
  | 8,53,
  | 9,28,
  | 9,33,
  | 9,38,
  | 9,40,
  | 9,42,
  | 9,44,
  | 9,56,
  | 10,19,
  | 10,20,
  | 10,29,
  | 10,41,
  | 10,43,
  | 10,47,
  | 10,53,
  | 11,24,
  | 11,48,
  | 12,17,
  | 12,18,
  | 12,19,
  | 12,20,
  | 12,21,
  | 12,26,
  | 12,28,
  | 12,33,
  | 12,36,
  | 12,40,
  | 12,41,
  | 12,42,
  | 12,47,
  | 12,52,
  | 12,53,
  | 12,55,
  | 12,56,
  | 13,17,
  | 13,18,
  | 13,19,
  | 13,20,
  | 13,21,
  | 13,26,
  | 13,28,
  | 13,33,
  | 13,36,
  | 13,40,
  | 13,41,
  | 13,42,
  | 13,44,
  | 13,47,
  | 13,53,
  | 13,55,
  | 14,17,
  | 14,18,
  | 14,19,
  | 14,20,
  | 14,21,
  | 14,26,
  | 14,28,
  | 14,33,
  | 14,36,
  | 14,40,
  | 14,41,
  | 14,42,
  | 14,43,
  | 14,47,
  | 14,53,
  | 14,55,
  | 15,25,
  | 15,28,
  | 15,32,
  | 15,33,
  | 15,42,
  | 15,44,
  | 15,56,
  | 16,22,
  | 16,24,
  | 16,30,
  | 16,31,
  | 16,33,
  | 16,34,
  | 16,35,
  | 16,54,
  | 16,56,
  | 16,57,
  | 16,58,
  | 17,22,
  | 17,29,
  | 17,45,
  | 18,20,
  | 18,21,
  | 18,27,
  | 18,45,
  | 18,51,
  | 19,20,
  | 19,41,
  | 19,42,
  | 19,45,
  | 19,46,
  | 19,47,
  | 19,49,
  | 19,53,
  | 20,37,
  | 20,45,
  | 20,46,
  | 20,47,
  | 20,49,
  | 20,53,
  | 21,45,
  | 21,47,
  | 22,23,
  | 22,24,
  | 22,30,
  | 22,31,
  | 22,34,
  | 22,35,
  | 22,54,
  | 22,56,
  | 22,57,
  | 24,30,
  | 24,31,
  | 24,34,
  | 24,35,
  | 24,42,
  | 24,54,
  | 24,56,
  | 24,57,
  | 25,28,
  | 25,33,
  | 25,42,
  | 25,44,
  | 25,56,
  | 26,30,
  | 26,45,
  | 26,47,
  | 26,51,
  | 26,58,
  | 27,28,
  | 27,33,
  | 27,37,
  | 27,42,
  | 27,44,
  | 27,56,
  | 27,57,
  | 28,32,
  | 28,38,
  | 28,45,
  | 28,54,
  | 28,57,
  | 28,58,
  | 29,46,
  | 29,48,
  | 29,49,
  | 30,31,
  | 30,34,
  | 30,35,
  | 30,50,
  | 30,54,
  | 30,56,
  | 30,57,
  | 31,37,
  | 31,39,
  | 31,54,
  | 31,57,
  | 32,33,
  | 32,38,
  | 32,42,
  | 32,44,
  | 32,56,
  | 33,38,
  | 33,45,
  | 33,54,
  | 33,58,
  | 34,54,
  | 34,56,
  | 34,57,
  | 35,40,
  | 35,41,
  | 35,54,
  | 35,57,
  | 36,41,
  | 36,45,
  | 36,51,
  | 36,54,
  | 37,51,
  | 37,55,
  | 37,58,
  | 38,42,
  | 38,44,
  | 38,56,
  | 39,43,
  | 40,44,
  | 40,45,
  | 40,51,
  | 41,44,
  | 41,45,
  | 41,46,
  | 41,49,
  | 41,53,
  | 42,45,
  | 42,54,
  | 42,58,
  | 44,54,
  | 44,58,
  | 45,47,
  | 45,53,
  | 45,55,
  | 46,47,
  | 46,49,
  | 46,52,
  | 46,53,
  | 47,49,
  | 49,53,
  | 50,52,
  | 51,55,
  | 53,55,
  | 54,56,
  | 54,57,
  | 56,57,
  | 56,58 |];

